n = 100;
C = 452;
w = [637,45,863,76,768,888,19,975,27,286,54,970,467,929,697,481,686,425,64,345,918,988,222,536,201,566,66,764,352,473,512,476,381,702,203,52,457,981,570,253,196,369,9,956,942,760,986,377,957,10,387,212,880,288,81,339,220,135,917,6,85,924,70,271,543,562,640,468,413,449,323,335,426,698,943,16,638,841,326,40,955,434,306,114,104,303,370,126,238,384,919,973,98,4,91,924,402,208,76,802];
p = [3195,235,4325,390,3850,4450,105,4885,145,1440,280,4860,2345,4655,3495,2415,3440,2135,330,1735,4600,4950,1120,2690,1015,2840,340,3830,1770,2375,2570,2390,1915,3520,1025,270,2295,4915,2860,1275,990,1855,55,4790,4720,3810,4940,1895,4795,60,1945,1070,4410,1450,415,1705,1110,685,4595,40,435,4630,360,1365,2725,2820,3210,2350,2075,2255,1625,1685,2140,3500,4725,90,3200,4215,1640,210,4785,2180,1540,580,530,1525,1860,640,1200,1930,4605,4875,500,30,465,4630,2020,1050,390,4020];
